-341 -361 0
336 -21 0
-19 -361 0
-20 -361 0
-361 0
1 0
-21 0
341 0
41 0
-321 0
-61 0
17 0
-261 0
-37 0
-277 0
-301 0
-81 0
16 0
13 0
2 0
357 0
-246 0
-36 0
-276 0
-262 0
-286 0
-96 0
-112 0
-201 0
-33 0
-213 0
-258 0
-273 0
-216 0
-217 0
-241 0
-141 0
-157 0
-22 0
-202 0
-247 0
-6 0
-48 0
-51 0
-52 0
-76 0
-306 0
-322 0
-337 0
-97 0
12 0
356 0
14 0
9 0
353 0
10 0
4 0
5 0
26 0
342 0
101 0
326 0
116 0
117 0
128 0
131 0
132 0
46 0
156 0
62 0
176 0
191 0
106 0
107 0
207 0
118 0
121 0
122 0
236 0
146 0
151 0
152 0
252 0
163 0
166 0
167 0
178 0
181 0
182 0
296 0
297 0
206 0
211 0
308 0
311 0
312 0
226 0
227 0
336 0
242 0
266 0
143 0
147 0
171 0
8 0
11 0
15 0
192 0
-186 0
-187 0
-7 0
-32 0
-47 0
-3 0
0
